NAME : Euclidean Random Tour : n = 100, sample = 3 
COMMENT : Coordinates are generated uniformly sampled from [0, 100000] x [0, 100000] 
DIMENSION : 100 
EDGE_WEIGHT_TYPE : EUC_2D 
TOUR_SECTION 
1
33
26
20
24
9
78
97
30
14
55
36
34
47
60
37
29
89
58
95
73
96
92
76
67
59
10
80
99
56
90
98
28
86
19
70
2
51
62
31
52
93
94
57
11
66
27
69
64
40
85
15
100
41
65
3
7
13
87
39
82
88
18
4
81
45
46
79
50
21
68
61
35
17
75
12
8
6
43
91
5
16
25
83
53
74
71
48
84
77
72
63
32
54
23
42
49
44
22
38
-1
